NAME : in_house_9_9
TYPE : TSP
DIMENSION : 9
EDGE_WEIGHT_TYPE : EXPLICIT
EDGE_WEIGHT_FORMAT : UPPER_ROW
COMMENT : INVERSION_SHIFT=2
EDGE_WEIGHT_SECTION
26
58
66
54
51
60
44
16
63
58
69
32
69
61
23
33
35
49
22
51
27
7
65
24
53
32
22
80
49
54
51
21
6
78
3
41
